p cnf 509 223
c ind 281 282 283 284 285 286 287 288 289 290 0
c ind 291 292 293 294 295 296 297 298 299 300 0
c ind 301 302 303 304 305 306 307 312 313 319 0
c ind 320 321 322 323 324 325 326 327 328 329 0
c ind 330 331 332 333 342 343 344 345 348 349 0
c ind 350 351 352 353 356 357 358 359 360 361 0
c ind 370 371 372 373 376 377 378 379 380 381 0
c ind 384 385 386 387 388 389 390 391 392 393 0
c ind 394 395 396 397 398 399 400 401 402 403 0
c ind 404 405 406 407 408 409 410 411 412 413 0
c ind 414 415 416 417 418 419 420 421 422 423 0
c ind 424 425 426 427 428 432 433 434 435 436 0
c ind 437 438 439 440 441 442 443 444 445 446 0
c ind 447 448 449 450 451 452 453 454 455 466 0
c ind 467 468 469 471 472 473 474 475 479 484 0
c ind 485 486 487 488 489 490 491 492 493 494 0
c ind 495 496 497 498 499 500 501 502 503 506 0
c ind 507 308 337 365 316 335 336 338 339 340 0
c ind 363 364 366 367 368 311 315 318 341 369 0
c ind 280 309 310 317 346 374 429 430 431 459 0
c ind 460 462 463 464 465 334 347 362 375 456 0
c ind 457 458 461 470 476 477 478 480 481 482 0
c ind 483 504 505 279 314 354 355 382 383 1 0
c ret 55 93 94 95 96 97 98 99 56 100 0
c ret 101 102 103 104 105 106 107 108 109 110 0
c ret 111 112 113 114 115 116 117 118 57 119 0
c ret 120 121 122 123 124 125 126 127 58 128 0
c ret 129 130 131 132 133 134 50 59 135 136 0
c ret 137 138 139 60 140 141 142 143 144 145 0
c ret 146 147 148 149 61 150 151 152 153 154 0
c ret 155 156 157 62 158 159 160 161 162 163 0
c ret 63 164 165 166 167 168 64 169 170 171 0
c ret 172 173 174 175 176 177 178 51 65 179 0
c ret 180 181 182 183 184 66 185 186 187 188 0
c ret 189 190 191 67 192 193 194 195 196 197 0
c ret 198 199 68 200 201 202 203 204 205 206 0
c ret 207 69 208 209 210 211 212 213 214 52 0
c ret 70 215 216 217 218 219 220 221 222 71 0
c ret 223 224 225 226 227 228 229 230 231 72 0
c ret 232 233 234 235 236 73 237 238 239 240 0
c ret 241 242 243 244 245 246 247 248 249 250 0
c ret 251 252 53 253 254 255 256 257 258 259 0
c ret 260 261 262 263 264 74 265 266 267 268 0
c ret 269 270 271 272 75 273 274 275 276 277 0
c ret 278 76 54 77 78 79 80 81 82 83 0
c ret 84 85 86 87 88 89 90 91 92 0
2 3 7 11 -47 0
-2 47 0
-2 -11 0
-2 -3 0
-2 -7 0
3 4 134 135 136 0
-3 -4 0
-3 -136 0
-3 -134 0
-3 -135 0
4 5 -139 0
4 5 6 -140 0
-4 -5 0
-4 -6 139 0
-4 139 140 0
5 137 -138 0
-5 -137 0
-5 138 0
6 145 146 0
6 145 153 154 0
-6 -145 0
-6 -146 -153 0
-6 -146 -154 0
7 8 106 107 108 0
-7 -8 0
-7 -108 0
-7 -106 0
-7 -107 0
8 9 -111 0
8 9 10 -112 0
-8 -9 0
-8 -10 111 0
-8 111 112 0
9 109 -110 0
-9 -109 0
-9 110 0
10 117 118 0
10 117 125 126 0
-10 -117 0
-10 -118 -125 0
-10 -118 -126 0
3 7 11 -12 -38 0
-11 38 0
-7 -11 0
-11 12 0
-3 -11 0
12 -13 -21 308 0
12 -13 -18 -21 0
-12 21 0
-12 13 0
-12 18 -308 0
13 14 79 0
13 14 15 -16 0
-13 -14 0
-13 16 -79 0
-13 -15 -79 0
14 -51 200 201 202 0
-14 -202 0
-14 -201 0
-14 51 0
-14 -200 0
15 85 88 89 0
-15 -85 0
-15 -89 0
-15 -88 0
16 17 -86 0
16 17 -87 0
16 17 85 0
-16 -17 0
-16 -85 86 87 0
17 -80 81 82 0
-17 80 0
-17 -82 0
-17 -81 0
18 -19 314 0
18 -19 -315 0
18 -19 -316 0
-18 19 0
-18 -314 315 316 0
19 20 -314 0
19 20 -317 0
19 20 -318 0
-19 -20 0
-19 314 317 318 0
20 -309 310 311 0
-20 309 0
-20 -311 0
-20 -310 0
21 -22 32 36 0
21 -22 32 35 0
-21 22 0
-21 -32 0
-21 -35 -36 0
22 -23 27 31 0
22 -23 27 30 0
-22 23 0
-22 -27 0
-22 -30 -31 0
23 24 -25 0
23 -25 -431 0
23 -25 -430 0
-23 25 0
-23 -24 430 431 0
24 -280 429 0
-24 280 0
-24 -429 0
25 -26 -279 -504 0
25 -26 279 -505 0
-25 26 0
-25 -279 504 0
-25 279 505 0
26 -105 -133 -334 -362 0
-26 362 0
-26 105 0
-26 334 0
-26 133 0
27 -28 -29 -248 249 0
-27 29 0
-27 248 0
-27 28 0
-27 -249 0
28 251 -252 -253 254 0
-28 -251 0
-28 -254 0
-28 253 0
-28 252 0
29 -241 -247 0
-29 241 0
-29 247 0
30 480 -481 -482 483 0
-30 -480 0
-30 -483 0
-30 482 0
-30 481 0
31 -470 -476 -477 478 0
-31 477 0
-31 -478 0
-31 470 0
-31 476 0
32 -33 -34 -230 0
32 -33 -34 -231 0
-32 34 0
-32 33 0
-32 230 231 0
33 233 234 235 236 0
-33 -236 0
-33 -235 0
-33 -233 0
-33 -234 0
34 -227 -228 -229 232 0
-34 229 0
-34 -232 0
-34 227 0
-34 228 0
35 462 463 464 465 0
-35 -465 0
-35 -464 0
-35 -462 0
-35 -463 0
36 -37 -460 0
36 -37 -459 0
-36 37 0
-36 459 460 0
37 -456 -457 -458 461 0
-37 458 0
-37 -461 0
-37 456 0
-37 457 0
38 39 46 0
38 39 -365 0
38 39 -43 0
-38 -39 0
-38 43 -46 365 0
39 40 335 336 337 0
-39 -40 0
-39 -337 0
-39 -335 0
-39 -336 0
40 41 -340 0
40 41 42 -341 0
-40 -41 0
-40 -42 340 0
-40 340 341 0
41 338 -339 0
-41 -338 0
-41 339 0
42 346 347 0
42 346 354 355 0
-42 -346 0
-42 -347 -354 0
-42 -347 -355 0
43 44 -368 0
43 44 45 -369 0
-43 -44 0
-43 -45 368 0
-43 368 369 0
44 366 -367 0
-44 -366 0
-44 367 0
45 374 375 0
45 374 382 383 0
-45 -374 0
-45 -375 -382 0
-45 -375 -383 0
46 363 364 0
-46 -363 0
-46 -364 0
-13 27 32 47 -48 0
-47 48 0
-32 -47 0
13 -47 0
-27 -47 0
48 -49 -50 -275 0
48 -49 50 -276 0
-48 49 0
-48 -50 275 0
-48 50 276 0
49 -105 -133 0
-49 105 0
-49 133 0
1 2 0
-1 -2 0
508 0

